c Generated map
c Size: 10 * 10, weights in range: 1 to 10, walls: True, with ratio 0.05
c dim 1 of 6
c
p sp 100 162
c graph contains 100 nodes and 162 arcs
c
a 1 11 7
a 11 1 7
a 3 13 1
a 13 3 1
a 3 4 3
a 4 3 3
a 4 14 10
a 14 4 10
a 4 5 2
a 5 4 2
a 5 15 8
a 15 5 8
a 5 6 2
a 6 5 2
a 6 16 1
a 16 6 1
a 6 7 10
a 7 6 10
a 7 17 4
a 17 7 4
a 7 8 6
a 8 7 6
a 8 9 10
a 9 8 10
a 9 19 2
a 19 9 2
a 9 10 2
a 10 9 2
a 10 20 8
a 20 10 8
a 11 21 6
a 21 11 6
a 11 12 10
a 12 11 10
a 12 22 6
a 22 12 6
a 12 13 5
a 13 12 5
a 13 23 4
a 23 13 4
a 13 14 10
a 14 13 10
a 14 24 5
a 24 14 5
a 14 15 3
a 15 14 3
a 15 25 3
a 25 15 3
a 15 16 5
a 16 15 5
a 16 26 6
a 26 16 6
a 16 17 8
a 17 16 8
a 17 27 10
a 27 17 10
a 19 29 5
a 29 19 5
a 19 20 2
a 20 19 2
a 20 30 2
a 30 20 2
a 21 31 5
a 31 21 5
a 21 22 5
a 22 21 5
a 22 32 8
a 32 22 8
a 22 23 7
a 23 22 7
a 23 33 7
a 33 23 7
a 23 24 9
a 24 23 9
a 24 34 9
a 34 24 9
a 24 25 9
a 25 24 9
a 25 35 10
a 35 25 10
a 25 26 6
a 26 25 6
a 26 36 2
a 36 26 2
a 26 27 5
a 27 26 5
a 27 37 2
a 37 27 2
a 27 28 6
a 28 27 6
a 28 38 4
a 38 28 4
a 28 29 9
a 29 28 9
a 29 39 5
a 39 29 5
a 29 30 1
a 30 29 1
a 30 40 3
a 40 30 3
a 31 41 1
a 41 31 1
a 31 32 9
a 32 31 9
a 32 42 3
a 42 32 3
a 32 33 10
a 33 32 10
a 33 43 1
a 43 33 1
a 33 34 7
a 34 33 7
a 34 44 3
a 44 34 3
a 34 35 7
a 35 34 7
a 35 45 9
a 45 35 9
a 35 36 3
a 36 35 3
a 36 46 10
a 46 36 10
a 36 37 5
a 37 36 5
a 37 47 4
a 47 37 4
a 37 38 5
a 38 37 5
a 38 48 4
a 48 38 4
a 38 39 1
a 39 38 1
a 39 49 9
a 49 39 9
a 39 40 2
a 40 39 2
a 40 50 9
a 50 40 9
a 41 51 3
a 51 41 3
a 41 42 3
a 42 41 3
a 42 52 4
a 52 42 4
a 42 43 4
a 43 42 4
a 43 53 5
a 53 43 5
a 43 44 6
a 44 43 6
a 44 54 5
a 54 44 5
a 44 45 10
a 45 44 10
a 45 55 3
a 55 45 3
a 45 46 10
a 46 45 10
a 46 56 1
a 56 46 1
a 46 47 6
a 47 46 6
a 47 57 9
a 57 47 9
a 47 48 10
a 48 47 10
a 48 58 2
a 58 48 2
a 48 49 10
a 49 48 10
a 49 59 7
a 59 49 7
a 49 50 1
a 50 49 1
a 50 60 5
a 60 50 5
a 51 61 8
a 61 51 8
a 51 52 2
a 52 51 2
a 52 62 10
a 62 52 10
a 52 53 9
a 53 52 9
a 53 63 8
a 63 53 8
a 53 54 2
a 54 53 2
a 54 64 6
a 64 54 6
a 54 55 6
a 55 54 6
a 55 65 1
a 65 55 1
a 55 56 9
a 56 55 9
a 56 66 5
a 66 56 5
a 56 57 4
a 57 56 4
a 57 58 6
a 58 57 6
a 58 68 6
a 68 58 6
a 58 59 5
a 59 58 5
a 59 69 2
a 69 59 2
a 59 60 1
a 60 59 1
a 60 70 7
a 70 60 7
a 61 71 5
a 71 61 5
a 61 62 2
a 62 61 2
a 62 72 2
a 72 62 2
a 62 63 9
a 63 62 9
a 63 73 10
a 73 63 10
a 63 64 7
a 64 63 7
a 64 74 9
a 74 64 9
a 64 65 9
a 65 64 9
a 65 75 1
a 75 65 1
a 65 66 10
a 66 65 10
a 66 76 9
a 76 66 9
a 68 78 2
a 78 68 2
a 68 69 4
a 69 68 4
a 69 70 2
a 70 69 2
a 70 80 6
a 80 70 6
a 71 81 9
a 81 71 9
a 71 72 6
a 72 71 6
a 72 82 9
a 82 72 9
a 72 73 8
a 73 72 8
a 73 83 4
a 83 73 4
a 73 74 9
a 74 73 9
a 74 84 10
a 84 74 10
a 74 75 7
a 75 74 7
a 75 85 9
a 85 75 9
a 75 76 7
a 76 75 7
a 76 86 2
a 86 76 2
a 76 77 10
a 77 76 10
a 77 87 3
a 87 77 3
a 77 78 10
a 78 77 10
a 78 88 1
a 88 78 1
a 80 90 7
a 90 80 7
a 81 91 3
a 91 81 3
a 81 82 7
a 82 81 7
a 82 92 10
a 92 82 10
a 82 83 6
a 83 82 6
a 83 93 3
a 93 83 3
a 83 84 9
a 84 83 9
a 84 94 7
a 94 84 7
a 84 85 3
a 85 84 3
a 85 95 10
a 95 85 10
a 85 86 2
a 86 85 2
a 86 96 9
a 96 86 9
a 86 87 1
a 87 86 1
a 87 88 7
a 88 87 7
a 88 98 6
a 98 88 6
a 88 89 3
a 89 88 3
a 89 99 1
a 99 89 1
a 89 90 9
a 90 89 9
a 90 100 4
a 100 90 4
a 91 92 4
a 92 91 4
a 92 93 3
a 93 92 3
a 93 94 7
a 94 93 7
a 94 95 5
a 95 94 5
a 95 96 1
a 96 95 1
a 98 99 4
a 99 98 4
a 99 100 4
a 100 99 4
